
%FILE DATA:	Soccer Computational Problem for MiniZinc Models	%
%AUTHOR:	Jack Wall	%
%CONTACT:  	116397063@umail.ucc.ie			%
%LAST UPDATE:	03/16/2020, 15:01:13						%
%DESCRIPTION: 	165 games played with 45 games left				%


n=15; %number of teams

%Games to play
games=[|2,11|2,1|10,2|13,15|13,6|10,6|13,8|6,9|14,1|1,10|13,5|9,6|5,12|9,10|2,9|1,4|15,5|7,4|8,6|12,5|15,14|14,7|14,3|15,11|10,3|10,8|10,5|6,10|11,15|7,15|4,15|5,6|2,4|10,13|4,9|15,8|9,13|15,9|9,15|1,11|14,2|12,6|7,6|13,7|3,12|];

%Initial points
iPoints=[29,30,29,16,18,23,33,30,20,29,38,38,36,29,37];

%POSITION CONSTRAINTS
% [|teamID, operator, position|...]
% operators index:
%  1 for =  operator
%  2 for >  operator
%  3 for >= operator
%  4 for <  operator
%  5 for <= operator
positionConstraints=[|15,3,1|13,5,2|12,3,3|11,3,4|10,5,5|];